Route #1: 12 37 15 33 45 44 42 4 47
Route #2: 27 1 32 11 38 16 21 50 9 49 5 46
Route #3: 6 48 23 7 26 8 31 28 22 2
Route #4: 18 14 25 13 41 40 19 17
Route #5: 10 39 30 34 29 20 35 36 3 43 24
Cost 609
